W = 9;
H = 5;

cost = array2d(1..H,1..W,[1 | r in 1..H, c in 1..W]);
reward = [| 2,0,0,0,0,0,0,0,0
          | 0,3,0,0,1,0,0,2,0
          | 0,0,0,0,0,0,-10,0,3
          | 0,0,2,-10,0,0,0,0,0
          | 0,0,0,0,2,0,0,1,0 
          |];

length = 12; 
budget = 12;                  
          
